14 86 
19 42 
59 23 
31 7 
96 54 
82 98 
4 62 
86 65 
89 67 
23 1 
67 49 
51 71 
12 74 
81 89 
11 94 
31 26 
32 3 
20 43 
26 51 
50 22 
57 84 
73 61 
99 59 
27 88 
78 2 
41 46 
51 93 
69 63 
67 2 
4 79 
96 88 
57 80 
91 77 
23 17 
80 25 
92 90 
62 65 
51 61 
76 30 
1 7 
32 43 
5 83 
36 74 
98 55 
76 3 
86 25 
43 95 
5 34 
24 81 
3 5 
